17	4
28	25	34	42	
0	0	0	0	0	3	2	3	4	
8	0	9	7	7	2	5	7	
6	10	2	8	5	2	8	13	
3	0	0	10	6	3	15	17	17	
7	2	0	9	8	2	6	11	
25	0	5	10	9	2	10	17	
100	0	7	4	6	3	9	12	16	
150	3	7	0	0	1	17	
75	10	1	7	3	2	17	17	
100	1	4	0	9	2	17	17	
100	0	0	8	0	2	17	17	
225	0	0	9	6	2	14	17	
10	0	0	3	1	2	16	17	
7	1	8	0	0	2	17	17	
9	2	0	9	3	1	17	
7	3	0	6	9	1	17	
0	0	0	0	0	0	
